%%% static parameters %%%
timespan = 1;
Clients_N = [4000];
Demand_W = [15];
Lt0 = [4];
Lt1 = [4];
SS_ = [0.85];
DS_D = [20];
K = [200];
MA = [500];
HC = [0.05];
%%% dynamic parameters %%%
lost_ratio_sales_ret_th = 0.0008755220009075119;
lost_ratio_sales_ret_w = 62;
lost_ratio_sales_dis_th = 0.0005576692661362985;
lost_ratio_sales_dis_w = 42;
lost_ratio_sales_fac_th = 0.0007550955682986414;
lost_ratio_sales_fac_w = 40;
stock_customer_MA_mean_relative_th = 0.650737176104422;
stock_customer_MA_mean_relative_w = 87;
stock_distributor_MA_mean_relative_th = 0.5537065486662922;
stock_distributor_MA_mean_relative_w = 31;
stock_retailer_MA_mean_relative_th = 0.050431136210076555;
stock_retailer_MA_mean_relative_w = 70;
stock_factory_MA_mean_relative_th = 0.0008790327442909085;
stock_factory_MA_mean_relative_w = 51;
